(set-logic ALL)
(set-option :produce-models true)
(declare-sort BoundSet 0)
(declare-sort UnboundSet 0)
(set-option :finite-model-find true)
(declare-fun HasNoProof (BoundSet) Bool)
(declare-fun IsInAntarctica (BoundSet) Bool)
(declare-fun WillContinue (BoundSet) Bool)
(assert (not (=> (exists ((a BoundSet)) (exists ((c BoundSet)) (and (HasNoProof c) (IsInAntarctica a)))) (exists ((a BoundSet)) (and (IsInAntarctica a) (not (WillContinue a)))))))
(check-sat)
(get-model)